# Solution for model r10_t9_m8_0
# Finished Task: 9 / 9
# Makespan: 441.0, Total Distance: 100.0, Total Time: 0.8041
# R O S F
0 0 -1 12.0 12.0
1 1 -1 0.0 0.0
2 2 12 37.0 37.0
3 3 -1 77.0 77.0
4 4 14 22.0 22.0
5 5 16 0.0 0.0
6 6 10 0.0 0.0
7 7 11 13.0 13.0
8 8 -1 0.0 0.0
9 9 13 89.0 89.0
10 6 -1 399.0 434.0
11 7 -1 383.0 406.0
12 2 17 181.0 207.0
13 9 -1 115.0 146.0
14 4 15 378.0 399.0
15 4 -1 410.0 441.0
16 5 -1 374.0 403.0
17 2 18 357.0 393.0
18 2 -1 409.0 430.0
